data;
set WEIGHTS := x0 x1 x2 x3 x4 x5 x6 x7 x8 x9 x10 x11 x12 x13 x14 x15 x16 x17;
param:  cost :=
  x0  343
  x1  995
  x2  976
  x3  45
  x4  313
  x5  47
  x6  444
  x7  553
  x8  523
  x9  811
  x10  628
  x11  188
  x12  565
  x13  619
  x14  556
  x15  820
  x16  465
  x17  366;
param cap := 4500;